118
803
89
0 2
0 5
0 49
0 50
1 3
1 12
1 21
1 22
1 42
1 53
1 91
1 97
2 5
2 11
2 16
2 18
2 23
2 26
2 28
2 33
2 49
2 50
2 73
2 84
2 102
2 112
3 12
3 21
3 22
3 34
3 42
3 45
3 53
3 91
3 97
3 115
4 6
4 10
4 13
4 17
4 19
4 20
4 46
4 47
4 55
4 56
4 59
4 60
4 62
4 86
4 99
4 104
5 11
5 16
5 18
5 23
5 29
5 40
5 49
5 50
5 75
6 10
6 13
6 17
6 19
6 20
6 46
6 47
6 55
6 56
6 61
6 63
6 66
6 77
7 9
7 12
7 14
7 17
7 20
7 27
7 31
7 36
7 68
7 81
7 92
7 107
8 10
8 13
8 19
8 24
8 30
9 12
9 27
9 81
9 92
10 13
10 17
10 19
10 20
10 24
10 30
11 16
11 18
11 23
11 29
11 40
11 50
11 75
12 21
12 22
12 27
12 35
12 39
12 41
12 48
12 53
12 65
12 80
12 81
12 92
12 113
12 114
13 17
13 19
13 20
13 24
13 30
13 46
13 47
13 55
13 56
13 61
13 63
13 66
13 77
14 17
14 20
14 31
14 36
14 68
14 107
15 16
15 18
15 19
15 23
15 69
16 18
16 19
16 23
16 50
16 69
17 19
17 20
17 31
17 36
17 43
17 44
17 45
17 48
17 51
17 52
17 54
17 68
17 74
17 101
17 107
18 19
18 23
18 26
18 28
18 50
18 69
18 84
18 112
19 20
19 23
19 24
19 30
19 69
20 31
20 36
20 68
20 107
21 22
21 34
21 45
21 53
21 115
22 35
22 39
22 41
22 48
22 53
22 63
22 77
22 80
22 108
22 110
22 117
23 29
23 40
23 50
23 69
23 75
23 83
23 88
24 25
24 27
24 30
24 57
24 81
24 90
24 92
25 27
25 30
25 57
25 81
25 90
25 92
26 28
26 31
26 32
26 34
26 35
26 36
26 37
26 43
26 45
26 48
26 68
26 69
26 84
26 96
26 107
26 109
26 112
27 30
27 57
27 81
27 90
27 92
28 33
28 42
28 46
28 47
28 73
28 84
28 102
28 112
29 40
29 75
30 38
30 40
30 51
30 57
30 59
30 70
30 75
30 81
30 90
30 92
31 32
31 34
31 35
31 36
31 37
31 43
31 45
31 48
31 68
31 69
31 96
31 107
31 109
32 34
32 35
32 36
32 37
32 43
32 45
32 48
32 68
32 69
32 96
32 107
32 109
33 73
33 84
33 102
33 112
34 35
34 43
34 45
34 48
34 115
35 39
35 41
35 43
35 45
35 48
35 80
36 37
36 43
36 68
36 69
36 96
36 107
36 109
37 43
37 68
37 69
37 96
37 107
37 109
38 40
38 51
38 59
38 70
38 71
38 73
38 75
38 98
38 102
39 41
39 48
39 57
39 58
39 63
39 64
39 77
39 80
39 90
39 92
39 106
39 108
39 110
39 117
40 51
40 59
40 70
40 71
40 73
40 75
40 98
40 102
41 48
41 80
42 46
42 47
42 49
42 50
42 53
42 67
42 84
42 89
42 91
42 95
42 97
42 108
43 44
43 45
43 48
43 51
43 52
43 68
43 69
43 96
43 107
43 109
44 45
44 48
44 51
44 52
45 48
45 51
45 52
45 115
46 47
46 55
46 56
46 59
46 60
46 62
46 84
46 86
46 99
46 104
47 55
47 56
47 57
47 58
47 64
47 65
47 76
47 78
47 79
47 84
47 106
48 51
48 52
48 80
49 50
49 53
49 67
49 89
49 91
49 95
49 97
49 108
50 53
50 67
50 89
50 91
50 95
50 97
50 108
51 52
51 54
51 59
51 70
51 74
51 75
51 101
52 54
52 74
52 101
53 67
53 89
53 91
53 95
53 97
53 108
54 74
54 101
55 56
56 57
56 58
56 64
56 65
56 76
56 78
56 79
56 106
57 58
57 63
57 64
57 65
57 76
57 78
57 79
57 81
57 82
57 84
57 90
57 92
57 106
57 110
57 111
57 112
57 117
58 63
58 64
58 65
58 76
58 78
58 79
58 81
58 82
58 84
58 90
58 92
58 106
58 110
58 111
58 112
58 117
59 60
59 62
59 68
59 69
59 70
59 71
59 72
59 73
59 75
59 80
59 86
59 98
59 99
59 102
59 104
60 62
60 68
60 69
60 70
60 71
60 72
60 73
60 75
60 80
60 86
60 99
60 104
61 63
61 66
61 77
61 83
61 96
61 98
61 100
61 102
61 105
61 107
61 109
61 115
62 86
62 99
62 104
63 64
63 66
63 77
63 90
63 92
63 96
63 98
63 100
63 102
63 105
63 106
63 108
63 110
63 117
64 65
64 76
64 78
64 79
64 90
64 92
64 106
64 110
64 117
65 76
65 78
65 79
65 94
65 106
65 113
65 114
66 77
67 74
67 76
67 77
67 78
67 79
67 85
67 89
67 91
67 93
67 95
67 97
67 101
67 108
67 113
68 69
68 70
68 71
68 72
68 73
68 75
68 80
68 96
68 99
68 107
68 109
69 70
69 71
69 72
69 73
69 75
69 80
69 96
69 99
69 107
69 109
70 71
70 72
70 73
70 75
70 80
70 98
70 99
70 102
71 72
71 73
71 75
71 80
71 98
71 99
71 102
72 73
72 75
72 80
72 99
73 75
73 80
73 84
73 98
73 99
73 102
73 112
74 76
74 77
74 78
74 79
74 85
74 89
74 91
74 93
74 95
74 97
74 101
74 108
74 113
75 80
75 98
75 99
75 102
76 77
76 78
76 79
76 94
76 105
76 106
76 111
76 112
76 116
77 78
77 79
77 96
77 98
77 100
77 102
77 105
77 108
77 110
77 117
78 79
78 106
79 94
79 106
80 99
81 82
81 84
81 90
81 92
81 110
81 111
81 112
82 84
82 90
82 92
82 110
82 111
82 112
83 88
83 96
83 98
83 100
83 102
83 107
83 109
83 115
84 90
84 92
84 102
84 110
84 111
84 112
85 86
85 87
85 89
85 91
85 93
85 95
85 97
85 101
85 108
85 113
86 87
86 89
86 91
86 93
86 99
86 104
86 108
89 91
89 93
89 95
89 97
89 101
89 108
89 113
90 92
90 106
90 110
90 111
90 112
90 117
91 93
91 95
91 97
91 101
91 108
91 113
92 106
92 110
92 111
92 112
92 117
93 95
93 97
93 101
93 108
93 113
95 97
95 99
95 101
95 103
95 104
95 106
95 108
95 113
95 114
96 98
96 100
96 102
96 105
96 107
96 109
96 115
97 99
97 101
97 103
97 104
97 106
97 108
97 113
97 114
98 100
98 102
98 105
98 107
98 109
98 115
99 101
99 103
99 104
99 106
99 113
99 114
100 102
100 105
100 107
100 109
100 115
101 103
101 104
101 106
101 108
101 113
101 114
102 105
102 107
102 109
102 112
102 115
103 104
103 106
103 113
103 114
104 106
104 113
104 114
105 111
105 112
105 116
106 110
106 113
106 114
106 117
107 109
107 115
108 110
108 113
108 117
109 115
110 111
110 112
110 117
111 112
111 116
112 116
113 114
0
1
2
3 4
5
6
7 8
9
10
11
12 13
14
15
16
17 18
19 20
21
22
23
24
25
26 27
28
29
30 31
32
33
34
35
36
37
38
39 40
41
42 43
44
45 46
47
48
49
50 51
52
53
54
55
56
57
58 59
60 61
62
63 64
65 66
67 68
69
70
71
72
73 74
75 76
77 78
79 80
81
82
83
84 85
86
87
88
89
90
91 92
93
94
95
96 97
98
99 100
101 102
103
104
105 106
107 108
109
110 111
112
113
114
115
116 117
